32      4       
17      12      16      18      
0       0       0       0       0       3       2       3       4       
10      0       11      0       15      3       5       6       8       
5       0       0       4       8       2       5       6       
4       0       0       1       10      2       5       8       
8       0       3       0       7       1       7       
7       5       0       7       0       1       7       
4       3       1       0       0       2       9       10      
5       0       11      0       5       2       9       10      
4       16      0       16      0       3       11      13      14      
5       1       3       0       0       3       11      12      14      
4       2       0       15      0       2       15      16      
10      8       0       0       11      2       15      16      
6       16      12      0       0       2       15      16      
3       0       5       16      0       1       15      
7       0       9       0       12      2       17      20      
2       7       5       0       0       2       18      20      
7       0       0       11      1       1       18      
3       11      0       1       0       1       19      
5       0       0       9       12      2       21      22      
6       0       8       0       1       1       21      
3       17      0       0       17      2       23      24      
1       11      0       1       0       1       23      
1       0       1       12      0       2       26      28      
1       0       5       16      0       1       25      
7       7       4       0       0       2       27      28      
6       0       5       0       17      1       27      
2       3       0       0       7       2       29      30      
5       0       0       9       10      2       29      30      
2       12      7       0       0       1       31      
8       0       0       1       2       1       31      
2       9       0       1       0       1       32      
0       0       0       0       0       0       
